SYSTEM = Si bulk
NWRITE = 2 
ENCUT  =  @R@ eV
NBANDS = 25
PREC = HIGH 
ISPIN = 1 
ISTART = 0 
NELMIN = 3 
NSW = 0
LWAVE = .FALSE.
LCHARG = .FALSE.
LVTOT = .FALSE.
