Automatic mesh
0
Monkhorst Pack
  @R@  @R@  @R@
  0.  0.  0.
